atom_style      granular
atom_modify     map array
boundary        f f f
newton          off

include parametersInit.par

communicate     single vel yes

units           si

#region          reg block -2.6 2.6 -1.0 1.0 -1.0 1.0 units box
region      reg block ${minX} ${maxX} ${minY} ${maxY} ${minZ} ${maxZ} units box
create_box      3 reg

neighbor        ${particle_size} bin
neigh_modify    delay 0

timestep ${dt}

# inclination of drum
variable  xVec  equal sin(${inclination_angle}*PI/180)
variable  zVec  equal cos(${inclination_angle}*PI/180)
variable  gz    equal -${zVec}
fix   gravi all gravity 9.81 vector ${xVec} 0.0 ${gz}

#Material properties required for new pair styles
fix         m1 all property/global youngsModulus peratomtype ${ym1} ${ym2} ${ym3}
fix         m2 all property/global poissonsRatio peratomtype ${pr1} ${pr2} ${pr3}
fix         m3 all property/global coefficientRestitution peratomtypepair 3 ${cr11} ${cr12} ${cr13} ${cr21} ${cr22} ${cr23} ${cr31} ${cr32} ${cr33}
fix         m4 all property/global coefficientFriction peratomtypepair 3 ${cf11} ${cf12} ${cf13} ${cf21} ${cf22} ${cf23} ${cf31} ${cf32} ${cf33}
fix         m5 all property/global coefficientRollingFriction peratomtypepair 3 ${crf11} ${crf12} ${crf13} ${crf21} ${crf22} ${crf23} ${crf31} ${crf32} ${crf33}
fix         m6 all property/global cohesionEnergyDensity peratomtypepair 3 ${ced11} ${ced12} ${ced13} ${ced21} ${ced22} ${ced23} ${ced31} ${ced32} ${ced33}

#New pair style
pair_style gran model hertz tangential history cohesion sjkr rolling_friction epsd2 tangential_reduce off
pair_coeff  * *

fix     cadShaft all mesh/surface file meshes/Shaft.stl type 1

fix     cadBlade1 all mesh/surface file meshes/Blade1.stl type 1
#fix     cadBlade2 all mesh/surface file meshes/Blade2.stl type 1
#fix     cadBlade3 all mesh/surface file meshes/Blade3.stl type 1
fix     cadBlade4 all mesh/surface file meshes/Blade4.stl type 1

fix     cadMix1 all mesh/surface file meshes/Mixer1.stl type 1
#fix     cadMix2 all mesh/surface file meshes/Mixer.stl type 1
#fix     cadMix3 all mesh/surface file meshes/Mixer.stl type 1
fix     cadMix4 all mesh/surface file meshes/Mixer4.stl type 1
#fix     cadMix5 all mesh/surface file meshes/Mixer.stl type 1
#fix     cadMix6 all mesh/surface file meshes/Mixer.stl type 1

fix     cadDrum all mesh/surface/stress file meshes/mixingDrum.stl type 1

#fix meshes all wall/gran model hertz tangential history mesh n_meshes 12 meshes cadShaft cadBlade1 cadBlade2 cadBlade3 cadBlade4 cadMix1 cadMix2 cadMix3 cadMix4 cadMix5 cadMix6 cadDrum
fix meshes all wall/gran model hertz tangential history mesh n_meshes 6 meshes cadShaft cadBlade1 cadBlade4 cadMix1 cadMix4 cadDrum

fix pts1 all particletemplate/sphere ${templateSeed1} atom_type 2 density constant ${density21} radius constant ${rad211}
fix pts2 all particletemplate/sphere ${templateSeed2} atom_type 2 density constant ${density21} radius constant ${rad212}
fix pts3 all particletemplate/sphere ${templateSeed3} atom_type 2 density constant ${density22} radius constant ${rad221}
fix pts4 all particletemplate/sphere ${templateSeed4} atom_type 2 density constant ${density22} radius constant ${rad222}
fix pts5 all particletemplate/sphere ${templateSeed5} atom_type 3 density constant ${density31} radius constant ${rad311}
fix pts6 all particletemplate/sphere ${templateSeed6} atom_type 3 density constant ${density31} radius constant ${rad312}
fix pts7 all particletemplate/sphere ${templateSeed7} atom_type 3 density constant ${density32} radius constant ${rad321}
fix pts8 all particletemplate/sphere ${templateSeed8} atom_type 3 density constant ${density32} radius constant ${rad322}

fix pdd1 all particledistribution/discrete ${pdistSeed1} 8 pts1 ${tp11} pts2 ${tp12} pts3 ${tp13} pts4 ${tp14} pts5 ${tp15} pts6 ${tp16} pts7 ${tp17} pts8 ${tp18}
fix pdd2 all particledistribution/discrete ${pdistSeed2} 8 pts1 ${tp21} pts2 ${tp22} pts3 ${tp23} pts4 ${tp24} pts5 ${tp25} pts6 ${tp26} pts7 ${tp27} pts8 ${tp28}

##################### start pouring particles (2 types!!)
#region for insertion
region      bc11 block     ${minXbc11} ${maxXbc11} ${minYbc11} ${maxYbc11} ${minZbc11} ${maxZbc11}
region      bc12 block     ${minXbc12} ${maxXbc12} ${minYbc12} ${maxYbc12} ${minZbc12} ${maxZbc12}
region      bc21 block     ${minXbc21} ${maxXbc21} ${minYbc21} ${maxYbc21} ${minZbc21} ${maxZbc21}
region      bc22 block     ${minXbc22} ${maxXbc22} ${minYbc22} ${maxYbc22} ${minZbc22} ${maxZbc22}
group       nve_group region reg

#fix ins11 nve_group insert/pack seed ${insSeed11} distributiontemplate pdd1 maxattempt 100 insert_every ${insertEvery} overlapcheck yes all_in yes vel constant 0.0 0.0 ${insertVelocity} region bc11 particles_in_region ${nrParticlesPerInsert1} ntry_mc 10000
#fix ins12 nve_group insert/pack seed ${insSeed12} distributiontemplate pdd2 maxattempt 100 insert_every ${insertEvery} overlapcheck yes all_in yes vel constant 0.0 0.0 ${insertVelocity} region bc12 particles_in_region ${nrParticlesPerInsert2} ntry_mc 10000
#fix ins21 nve_group insert/pack seed ${insSeed21} distributiontemplate pdd1 maxattempt 100 insert_every ${insertEvery} overlapcheck yes all_in yes vel constant 0.0 0.0 ${insertVelocity} region bc21 particles_in_region ${nrParticlesPerInsert1} ntry_mc 10000
#fix ins22 nve_group insert/pack seed ${insSeed22} distributiontemplate pdd2 maxattempt 100 insert_every ${insertEvery} overlapcheck yes all_in yes vel constant 0.0 0.0 ${insertVelocity} region bc22 particles_in_region ${nrParticlesPerInsert2} ntry_mc 10000

#apply nve integration to all particles that are inserted as single particles
fix     integr all nve/sphere

variable nthermo equal ceil(${status_output}/${dt})
fix      ts_check all check/timestep/gran ${nthermo} 0.1 0.1

#output settings, include total thermal energy
compute         rke all erotate/sphere
thermo_style    custom step time atoms ke c_rke f_ts_check[1] f_ts_check[2]
thermo          ${nthermo}
thermo_modify   lost ignore norm no

#insert the first particles so that dump is not empty
#run     1


#insert particles

#dump    dump_parts all custom/vtk ${nrInitTimesteps} post/init_particles_*.vtp id type x y z ix iy iz vx vy vz fx fy fz omegax omegay omegaz tqx tqy tqz radius density
#dump    dump_walls all mesh/vtk ${nrInitTimesteps} post/init_walls_*.vtp stress

#run     ${nrInitTimesteps} upto

# stop insertion
#unfix   ins11
#unfix   ins12
#unfix   ins21
#unfix   ins22



variable nsteps1 equal ceil(${run_time}/${dt})
variable nsteps2 equal ${nsteps1}*2
variable nsteps3 equal ${nsteps1}*3

dump  dump_parts all custom/vtk ${nsteps1} post/init_particles_*.vtp id type x y z ix iy iz vx vy vz fx fy fz omegax omegay omegaz tqx tqy tqz radius density
dump  dump_walls all mesh/vtk ${nsteps1} post/init_walls_*.vtp stress

fix ins1 all insert/pack seed ${insSeed11} distributiontemplate pdd1 insert_every once overlapcheck no particles_in_region ${particles_to_insert1} region bc11 ntry_mc 10000
fix ins2 all insert/pack seed ${insSeed12} distributiontemplate pdd2 insert_every once overlapcheck no particles_in_region ${particles_to_insert2} region bc12 ntry_mc 10000
run   ${nsteps1} upto
unfix ins1
unfix ins2

fix ins3 all insert/pack seed ${insSeed21} distributiontemplate pdd1 insert_every once overlapcheck no particles_in_region ${particles_to_insert1} region bc21 ntry_mc 10000
fix ins4 all insert/pack seed ${insSeed22} distributiontemplate pdd2 insert_every once overlapcheck no particles_in_region ${particles_to_insert2} region bc22 ntry_mc 10000
run   ${nsteps2} upto
unfix ins3
unfix ins4

run   ${nsteps3} upto




write_restart restart/post_init.restart
