atom_style      granular
atom_modify     map array
boundary        f f f
newton          off

include parametersMain.par

communicate     single vel yes

units           si

#read_restart    restart/post_init.restart
read_data init.data
#region          reg block -2.6 2.6 -1.0 1.0 -1.0 1.0 units box
region      reg block ${minX} ${maxX} ${minY} ${maxY} ${minZ} ${maxZ} units box

neighbor        ${particle_size} bin
neigh_modify    delay 0 one 20000 page 10000000

timestep ${dt}

# inclination of drum
variable  xVec  equal sin(${inclination_angle}*PI/180)
variable  zVec  equal cos(${inclination_angle}*PI/180)
variable  gz    equal -${zVec}
fix   gravi all gravity 9.81 vector ${xVec} 0.0 ${gz}

#Material properties required for new pair styles
fix         m1 all property/global youngsModulus peratomtype ${ym1} ${ym2} ${ym3}
fix         m2 all property/global poissonsRatio peratomtype ${pr1} ${pr2} ${pr3}
fix         m3 all property/global coefficientRestitution peratomtypepair 3 ${cr11} ${cr12} ${cr13} ${cr21} ${cr22} ${cr23} ${cr31} ${cr32} ${cr33}
fix         m4 all property/global coefficientFriction peratomtypepair 3 ${cf11} ${cf12} ${cf13} ${cf21} ${cf22} ${cf23} ${cf31} ${cf32} ${cf33}
fix         m5 all property/global coefficientRollingFriction peratomtypepair 3 ${crf11} ${crf12} ${crf13} ${crf21} ${crf22} ${crf23} ${crf31} ${crf32} ${crf33}
fix         m6 all property/global cohesionEnergyDensity peratomtypepair 3 ${ced11} ${ced12} ${ced13} ${ced21} ${ced22} ${ced23} ${ced31} ${ced32} ${ced33}

#New pair style
pair_style gran model hertz tangential history cohesion sjkr rolling_friction epsd2 tangential_reduce off
pair_coeff  * *

fix     cadShaft all mesh/surface file meshes/Shaft.stl type 1

fix     cadBlade1 all mesh/surface file meshes/Blade1.stl type 1
#fix     cadBlade2 all mesh/surface file meshes/Blade2.stl type 1
#fix     cadBlade3 all mesh/surface file meshes/Blade3.stl type 1
fix     cadBlade4 all mesh/surface file meshes/Blade4.stl type 1

fix     cadMix1 all mesh/surface file meshes/Mixer1.stl type 1
#fix     cadMix2 all mesh/surface file meshes/Mixer.stl type 1
#fix     cadMix3 all mesh/surface file meshes/Mixer.stl type 1
fix     cadMix4 all mesh/surface file meshes/Mixer4.stl type 1
#fix     cadMix5 all mesh/surface file meshes/Mixer.stl type 1
#fix     cadMix6 all mesh/surface file meshes/Mixer.stl type 1

fix     cadDrum all mesh/surface/stress file meshes/mixingDrum.stl type 1

#fix meshes all wall/gran model hertz tangential history mesh n_meshes 12 meshes cadShaft cadBlade1 cadBlade2 cadBlade3 cadBlade4 cadMix1 cadMix2 cadMix3 cadMix4 cadMix5 cadMix6 cadDrum
fix meshes all wall/gran model hertz tangential history mesh n_meshes 6 meshes cadShaft cadBlade1 cadBlade4 cadMix1 cadMix4 cadDrum

##################### start pouring particles (2 types!!)
group       nve_group region reg
#apply nve integration to all particles that are inserted as single particles
fix     integr all nve/sphere

variable nthermo equal ceil(${status_output}/${dt})
variable ndump equal ceil(${data_output}/${dt})
fix      ts_check all check/timestep/gran ${nthermo} 0.1 0.1

#output settings, include total thermal energy
compute         rke all erotate/sphere
thermo_style    custom step time atoms ke c_rke f_ts_check[1] f_ts_check[2]
thermo          ${nthermo}

dump    dump_parts all custom/vtk ${ndump} post/main_particles_*.vtp id type x y z ix iy iz vx vy vz fx fy fz omegax omegay omegaz tqx tqy tqz radius density
#dump    dump_walls all mesh/vtk ${ndump} post/main_walls_*.vtp stress
thermo_modify   lost ignore norm no

variable nsteps equal ceil(${run_time}/${dt})

#################### start moving the mesh
fix     movecad1  all move/mesh mesh cadShaft  rotate origin 0. 0. 0. axis 1. 0. 0. period ${rotation_period}
fix     movecad2  all move/mesh mesh cadBlade1 rotate origin 0. 0. 0. axis 1. 0. 0. period ${rotation_period}
#fix     movecad3  all move/mesh mesh cadBlade2 rotate origin 0. 0. 0. axis 1. 0. 0. period ${rotation_period}
#fix     movecad4  all move/mesh mesh cadBlade3 rotate origin 0. 0. 0. axis 1. 0. 0. period ${rotation_period}
fix     movecad5  all move/mesh mesh cadBlade4 rotate origin 0. 0. 0. axis 1. 0. 0. period ${rotation_period}

fix     movecad6  all move/mesh mesh cadMix1   rotate origin 0. 0. 0. axis 1. 0. 0. period ${rotation_period}
#fix     movecad7  all move/mesh mesh cadMix2   rotate origin 0. 0. 0. axis 1. 0. 0. period ${rotation_period}
#fix     movecad8  all move/mesh mesh cadMix3   rotate origin 0. 0. 0. axis 1. 0. 0. period ${rotation_period}
fix     movecad9  all move/mesh mesh cadMix4   rotate origin 0. 0. 0. axis 1. 0. 0. period ${rotation_period}
#fix     movecad10 all move/mesh mesh cadMix5   rotate origin 0. 0. 0. axis 1. 0. 0. period ${rotation_period}
#fix     movecad11 all move/mesh mesh cadMix6   rotate origin 0. 0. 0. axis 1. 0. 0. period ${rotation_period}

run     ${nsteps}
